>compound Apomorphine
>formula C17H17NO2
>parentmass 268.1327819824219
>charge 1

#>retention 431.702
>collision 35
>tic 4620500.0
71.70197296142578 1217.400390625
75.92607116699219 1364.7723388671875
76.81597137451172 1390.8721923828125
83.93681335449219 1233.1934814453125
89.27789306640625 1612.3050537109375
95.94158935546875 1360.812255859375
97.73460388183594 1451.800048828125
106.77906036376953 1364.9608154296875
117.76246643066406 1198.364990234375
132.60488891601562 1336.7423095703125
150.40406799316406 1484.48876953125
159.81826782226562 1373.85986328125
160.1300506591797 1263.6181640625
173.44412231445312 1231.4136962890625
174.31423950195312 1498.2611083984375
177.24085998535156 1293.4111328125
182.22373962402344 1288.0841064453125
188.45059204101562 1821.615966796875
189.0673370361328 2230.830810546875
191.08493041992188 13238.4833984375
196.4677276611328 2194.98779296875
207.08111572265625 7326.12548828125
216.7132110595703 1336.119140625
216.97799682617188 1517.8179931640625
218.72120666503906 1840.9490966796875
218.9414520263672 3922.50341796875
219.08038330078125 562745.625
219.22161865234375 2034.68798828125
219.44216918945312 1534.2816162109375
220.08035278320312 1472.8946533203125
220.56097412109375 1741.994873046875
222.63511657714844 1424.3341064453125
225.09083557128906 10754.2392578125
233.09683227539062 14299.84765625
237.09056091308594 3108268.75
237.49940490722656 10266.298828125
237.76145935058594 2090.052734375
237.9230499267578 1568.8948974609375
238.0936737060547 12421.7568359375
251.10671997070312 4122.197265625
267.644287109375 1546.58740234375
267.94586181640625 2037.465576171875
268.1327819824219 365928.34375
269.135986328125 238653.59375

#>retention 432.33
>collision 45
>tic 4088940.0
80.76870727539062 1226.7879638671875
107.77550506591797 1317.1556396484375
109.74761199951172 1409.82958984375
115.80708312988281 1121.3128662109375
140.04635620117188 1217.7630615234375
141.4908447265625 1308.5010986328125
153.24594116210938 1444.93408203125
169.56072998046875 1162.759033203125
178.0465545654297 1288.2255859375
189.0658416748047 2525.04052734375
191.08541870117188 13861.0810546875
207.0808563232422 8164.78125
211.71498107910156 1420.9205322265625
216.73072814941406 1213.42236328125
218.71786499023438 1909.2371826171875
218.9398956298828 3098.471923828125
219.08050537109375 563559.4375
220.08433532714844 2611.36279296875
222.66989135742188 1234.8060302734375
225.09136962890625 10278.55078125
232.9829559326172 1145.3389892578125
233.09706115722656 10469.0966796875
237.09063720703125 2822752.75
237.50091552734375 7634.310546875
238.09417724609375 21030.564453125
241.30255126953125 1054.5184326171875
251.1065216064453 3723.102783203125
268.1329040527344 111188.6953125
269.1360778808594 291811.9375
292.5641784667969 1127.9920654296875

#>retention 433.068
>collision 55
>tic 4884970.0
74.94770050048828 1595.4117431640625
78.87987518310547 1457.885498046875
85.96381378173828 1602.989501953125
87.36731719970703 1690.3897705078125
102.28946685791016 1459.384521484375
102.80085754394531 1742.24609375
115.11083984375 1441.059326171875
130.1224822998047 1398.3231201171875
133.65773010253906 1646.780517578125
150.1754913330078 1437.4659423828125
189.0659637451172 2418.689453125
191.08541870117188 15164.119140625
196.46786499023438 2531.8369140625
204.8537139892578 2140.22900390625
207.08090209960938 11504.6220703125
219.08055114746094 706450.875
219.446533203125 2647.181396484375
220.0823211669922 2318.429443359375
220.563720703125 2236.858642578125
225.09109497070312 12428.962890625
233.09706115722656 15023.0859375
236.27976989746094 1704.0703125
237.09066772460938 3575398.0
237.77488708496094 3061.77001953125
238.09402465820312 19101.98828125
250.08334350585938 1417.9869384765625
251.10462951660156 2950.377685546875
268.1328125 37330.9765625
269.13623046875 153340.203125
283.21539306640625 1996.4190673828125

#>retention 433.692
>collision 70
>tic 3575490.0
70.45109558105469 1165.998046875
87.99540710449219 995.8367309570312
90.82288360595703 1111.8975830078125
91.9701156616211 998.488525390625
100.7730712890625 1160.6790771484375
107.20248413085938 1036.5419921875
108.83199310302734 1152.3048095703125
110.56816101074219 1198.708251953125
123.52637481689453 1067.488037109375
127.81008911132812 1227.947021484375
162.3206787109375 1058.1187744140625
163.03565979003906 1305.6865234375
179.56607055664062 1128.7513427734375
189.06468200683594 3281.245849609375
191.0853729248047 11785.6884765625
196.4676971435547 1606.95361328125
205.86082458496094 1150.36865234375
207.08071899414062 7862.61865234375
212.64926147460938 1119.0550537109375
218.7147979736328 2777.339111328125
219.08071899414062 530161.4375
219.44744873046875 1235.64697265625
220.08416748046875 17897.91015625
225.09130859375 8665.73828125
233.09686279296875 9823.30859375
234.50030517578125 1161.470703125
236.40476989746094 1681.6680908203125
237.0908966064453 2686782.0
237.77610778808594 1270.2000732421875
238.09393310546875 72758.9921875
251.10520935058594 2528.52294921875
269.13653564453125 8609.9111328125
277.28582763671875 1130.22705078125
298.9460144042969 1273.2982177734375


>ms1peaks
#>retention 432.621
268.133575439453 1.6269525E7
269.136779785156 3047027.25
270.139526367188 298258.28125
271.141174316406 20113.931640625
