>compound Adenosine
>formula C10H13N5O4
>parentmass 268.1000061035156
>charge 1
>IsotopeMs2Settings SCORE

>retention 91.4615
>collision 35.0
>tic 1386770.0
76.88967895507812 1272.058837890625
84.84764099121094 1185.714111328125
85.0615234375 1164.8341064453125
88.24322509765625 1236.05322265625
89.1296157836914 1216.543701171875
107.67613983154297 1196.9620361328125
117.3624267578125 1141.381103515625
135.8373260498047 1970.9794921875
135.87600708007812 1705.2208251953125
135.8885955810547 5803.05859375
135.9011688232422 2412.75439453125
135.9447479248047 2102.443115234375
135.95394897460938 1284.8671875
135.99217224121094 7659.35009765625
136.0048370361328 3296.4453125
136.0294952392578 1421.7021484375
136.0380859375 7320.6904296875
136.0461883544922 3953.54150390625
136.0615692138672 1122434.625
136.0817413330078 7027.9970703125
136.09205627441406 2526.531982421875
136.09683227539062 1487.2218017578125
136.1304931640625 4095.885986328125
136.2353515625 3134.866455078125
143.49205017089844 1004.1690063476562
154.12741088867188 1334.08251953125
157.13082885742188 1202.6328125
180.83724975585938 1149.796142578125
182.43179321289062 1148.528564453125
201.22511291503906 1304.035400390625
213.83578491210938 1172.329833984375
219.080322265625 21386.669921875
226.5345458984375 1213.6317138671875
237.09091186523438 167800.875

>retention 92.1733
>collision 45.0
>tic 1068350.0
71.92290496826172 1168.92626953125
86.38412475585938 1086.9320068359375
88.57291412353516 1198.6903076171875
91.14815521240234 1037.166259765625
95.60325622558594 1174.916748046875
105.88399505615234 1280.62451171875
121.09530639648438 1218.9510498046875
127.8521499633789 1310.811767578125
128.54754638671875 1216.9287109375
135.71334838867188 1369.1201171875
135.887939453125 3427.4306640625
135.9298095703125 1381.973876953125
135.94497680664062 1788.466064453125
135.99249267578125 5190.71533203125
136.002197265625 3235.0185546875
136.03770446777344 4143.0751953125
136.04444885253906 2459.861083984375
136.06146240234375 808143.8125
136.075927734375 2569.086669921875
136.08511352539062 5399.49853515625
136.12957763671875 3077.448486328125
136.2357177734375 1980.8958740234375
136.65357971191406 1199.8511962890625
148.38070678710938 1309.1285400390625
173.24900817871094 1297.15283203125
178.87075805664062 1225.314453125
193.45570373535156 1229.872314453125
219.0802764892578 20152.07421875
220.57586669921875 1263.8656005859375
237.09066772460938 183238.328125
265.8274841308594 1109.6046142578125
274.3423156738281 1462.6627197265625

>retention 92.9055
>collision 55.0
>tic 802941.0
76.42301177978516 1164.474609375
79.14417266845703 972.2864379882812
88.86035919189453 1310.2022705078125
106.18355560302734 1195.565673828125
135.8871612548828 3993.299072265625
135.9928741455078 3979.442626953125
136.03445434570312 2340.97265625
136.0410919189453 1992.728271484375
136.06137084960938 568236.125
136.08460998535156 4257.03076171875
136.13047790527344 2980.91259765625
136.22857666015625 1192.59814453125
136.23463439941406 1166.9151611328125
197.61341857910156 1193.385498046875
203.6941375732422 1189.1348876953125
219.07998657226562 21971.18359375
237.0905303955078 180033.921875
292.21759033203125 1154.9481201171875
293.09234619140625 1334.2237548828125
293.5871887207031 1281.8280029296875
>retention 93.6412
>collision 70.0
>tic 497284.0
78.5033187866211 1172.272216796875
78.61756896972656 1061.22509765625
79.35115814208984 1092.155517578125
81.38387298583984 1380.9180908203125
87.87230682373047 1041.4178466796875
88.13011932373047 1177.78759765625
88.22921752929688 1138.9820556640625
93.8049545288086 1139.412109375
95.58785247802734 1245.5587158203125
100.25425720214844 1107.3309326171875
100.34292602539062 1121.7867431640625
108.15802764892578 1140.220947265625
112.32617950439453 1066.002197265625
135.88742065429688 1200.5443115234375
135.99249267578125 2022.3067626953125
136.03878784179688 1320.1058349609375
136.0613555908203 305662.5
136.07679748535156 1969.2408447265625
136.08340454101562 2154.58349609375
140.04660034179688 1207.4371337890625
179.4093780517578 1304.493408203125
179.90438842773438 1295.9327392578125
188.3968505859375 1232.5029296875
214.5359344482422 1160.7869873046875
219.07986450195312 17817.638671875
220.5658721923828 1356.474609375
237.0904541015625 141373.65625
252.15505981445312 1320.52978515625

>ms1peaks
>retention 89.8151
268.104583740234 5055978.5
269.107360839844 568227.75
270.108764648438 57896.08984375
